p cnf 245 1482
1 2 3 4 5 6 7 0
8 9 10 11 12 13 14 0
15 16 17 18 19 20 21 0
22 23 24 25 26 27 28 0
29 30 31 32 33 34 35 0
36 37 38 39 40 41 42 0
43 44 45 46 47 48 49 0
50 51 52 53 54 55 56 0
57 58 59 60 61 62 63 0
64 65 66 67 68 69 70 0
71 72 73 74 75 76 77 0
78 79 80 81 82 83 84 0
85 86 87 88 89 90 91 0
92 93 94 95 96 97 98 0
99 100 101 102 103 104 105 0
106 107 108 109 110 111 112 0
113 114 115 116 117 118 119 0
120 121 122 123 124 125 126 0
127 128 129 130 131 132 133 0
134 135 136 137 138 139 140 0
141 142 143 144 145 146 147 0
148 149 150 151 152 153 154 0
155 156 157 158 159 160 161 0
162 163 164 165 166 167 168 0
169 170 171 172 173 174 175 0
176 177 178 179 180 181 182 0
183 184 185 186 187 188 189 0
190 191 192 193 194 195 196 0
197 198 199 200 201 202 203 0
204 205 206 207 208 209 210 0
211 212 213 214 215 216 217 0
218 219 220 221 222 223 224 0
225 226 227 228 229 230 231 0
232 233 234 235 236 237 238 0
239 240 241 242 243 244 245 0
-1 -2 0
-1 -3 0
-1 -4 0
-1 -5 0
-1 -6 0
-1 -7 0
-2 -3 0
-2 -4 0
-2 -5 0
-2 -6 0
-2 -7 0
-3 -4 0
-3 -5 0
-3 -6 0
-3 -7 0
-4 -5 0
-4 -6 0
-4 -7 0
-5 -6 0
-5 -7 0
-6 -7 0
-8 -9 0
-8 -10 0
-8 -11 0
-8 -12 0
-8 -13 0
-8 -14 0
-9 -10 0
-9 -11 0
-9 -12 0
-9 -13 0
-9 -14 0
-10 -11 0
-10 -12 0
-10 -13 0
-10 -14 0
-11 -12 0
-11 -13 0
-11 -14 0
-12 -13 0
-12 -14 0
-13 -14 0
-15 -16 0
-15 -17 0
-15 -18 0
-15 -19 0
-15 -20 0
-15 -21 0
-16 -17 0
-16 -18 0
-16 -19 0
-16 -20 0
-16 -21 0
-17 -18 0
-17 -19 0
-17 -20 0
-17 -21 0
-18 -19 0
-18 -20 0
-18 -21 0
-19 -20 0
-19 -21 0
-20 -21 0
-22 -23 0
-22 -24 0
-22 -25 0
-22 -26 0
-22 -27 0
-22 -28 0
-23 -24 0
-23 -25 0
-23 -26 0
-23 -27 0
-23 -28 0
-24 -25 0
-24 -26 0
-24 -27 0
-24 -28 0
-25 -26 0
-25 -27 0
-25 -28 0
-26 -27 0
-26 -28 0
-27 -28 0
-29 -30 0
-29 -31 0
-29 -32 0
-29 -33 0
-29 -34 0
-29 -35 0
-30 -31 0
-30 -32 0
-30 -33 0
-30 -34 0
-30 -35 0
-31 -32 0
-31 -33 0
-31 -34 0
-31 -35 0
-32 -33 0
-32 -34 0
-32 -35 0
-33 -34 0
-33 -35 0
-34 -35 0
-36 -37 0
-36 -38 0
-36 -39 0
-36 -40 0
-36 -41 0
-36 -42 0
-37 -38 0
-37 -39 0
-37 -40 0
-37 -41 0
-37 -42 0
-38 -39 0
-38 -40 0
-38 -41 0
-38 -42 0
-39 -40 0
-39 -41 0
-39 -42 0
-40 -41 0
-40 -42 0
-41 -42 0
-43 -44 0
-43 -45 0
-43 -46 0
-43 -47 0
-43 -48 0
-43 -49 0
-44 -45 0
-44 -46 0
-44 -47 0
-44 -48 0
-44 -49 0
-45 -46 0
-45 -47 0
-45 -48 0
-45 -49 0
-46 -47 0
-46 -48 0
-46 -49 0
-47 -48 0
-47 -49 0
-48 -49 0
-50 -51 0
-50 -52 0
-50 -53 0
-50 -54 0
-50 -55 0
-50 -56 0
-51 -52 0
-51 -53 0
-51 -54 0
-51 -55 0
-51 -56 0
-52 -53 0
-52 -54 0
-52 -55 0
-52 -56 0
-53 -54 0
-53 -55 0
-53 -56 0
-54 -55 0
-54 -56 0
-55 -56 0
-57 -58 0
-57 -59 0
-57 -60 0
-57 -61 0
-57 -62 0
-57 -63 0
-58 -59 0
-58 -60 0
-58 -61 0
-58 -62 0
-58 -63 0
-59 -60 0
-59 -61 0
-59 -62 0
-59 -63 0
-60 -61 0
-60 -62 0
-60 -63 0
-61 -62 0
-61 -63 0
-62 -63 0
-64 -65 0
-64 -66 0
-64 -67 0
-64 -68 0
-64 -69 0
-64 -70 0
-65 -66 0
-65 -67 0
-65 -68 0
-65 -69 0
-65 -70 0
-66 -67 0
-66 -68 0
-66 -69 0
-66 -70 0
-67 -68 0
-67 -69 0
-67 -70 0
-68 -69 0
-68 -70 0
-69 -70 0
-71 -72 0
-71 -73 0
-71 -74 0
-71 -75 0
-71 -76 0
-71 -77 0
-72 -73 0
-72 -74 0
-72 -75 0
-72 -76 0
-72 -77 0
-73 -74 0
-73 -75 0
-73 -76 0
-73 -77 0
-74 -75 0
-74 -76 0
-74 -77 0
-75 -76 0
-75 -77 0
-76 -77 0
-78 -79 0
-78 -80 0
-78 -81 0
-78 -82 0
-78 -83 0
-78 -84 0
-79 -80 0
-79 -81 0
-79 -82 0
-79 -83 0
-79 -84 0
-80 -81 0
-80 -82 0
-80 -83 0
-80 -84 0
-81 -82 0
-81 -83 0
-81 -84 0
-82 -83 0
-82 -84 0
-83 -84 0
-85 -86 0
-85 -87 0
-85 -88 0
-85 -89 0
-85 -90 0
-85 -91 0
-86 -87 0
-86 -88 0
-86 -89 0
-86 -90 0
-86 -91 0
-87 -88 0
-87 -89 0
-87 -90 0
-87 -91 0
-88 -89 0
-88 -90 0
-88 -91 0
-89 -90 0
-89 -91 0
-90 -91 0
-92 -93 0
-92 -94 0
-92 -95 0
-92 -96 0
-92 -97 0
-92 -98 0
-93 -94 0
-93 -95 0
-93 -96 0
-93 -97 0
-93 -98 0
-94 -95 0
-94 -96 0
-94 -97 0
-94 -98 0
-95 -96 0
-95 -97 0
-95 -98 0
-96 -97 0
-96 -98 0
-97 -98 0
-99 -100 0
-99 -101 0
-99 -102 0
-99 -103 0
-99 -104 0
-99 -105 0
-100 -101 0
-100 -102 0
-100 -103 0
-100 -104 0
-100 -105 0
-101 -102 0
-101 -103 0
-101 -104 0
-101 -105 0
-102 -103 0
-102 -104 0
-102 -105 0
-103 -104 0
-103 -105 0
-104 -105 0
-106 -107 0
-106 -108 0
-106 -109 0
-106 -110 0
-106 -111 0
-106 -112 0
-107 -108 0
-107 -109 0
-107 -110 0
-107 -111 0
-107 -112 0
-108 -109 0
-108 -110 0
-108 -111 0
-108 -112 0
-109 -110 0
-109 -111 0
-109 -112 0
-110 -111 0
-110 -112 0
-111 -112 0
-113 -114 0
-113 -115 0
-113 -116 0
-113 -117 0
-113 -118 0
-113 -119 0
-114 -115 0
-114 -116 0
-114 -117 0
-114 -118 0
-114 -119 0
-115 -116 0
-115 -117 0
-115 -118 0
-115 -119 0
-116 -117 0
-116 -118 0
-116 -119 0
-117 -118 0
-117 -119 0
-118 -119 0
-120 -121 0
-120 -122 0
-120 -123 0
-120 -124 0
-120 -125 0
-120 -126 0
-121 -122 0
-121 -123 0
-121 -124 0
-121 -125 0
-121 -126 0
-122 -123 0
-122 -124 0
-122 -125 0
-122 -126 0
-123 -124 0
-123 -125 0
-123 -126 0
-124 -125 0
-124 -126 0
-125 -126 0
-127 -128 0
-127 -129 0
-127 -130 0
-127 -131 0
-127 -132 0
-127 -133 0
-128 -129 0
-128 -130 0
-128 -131 0
-128 -132 0
-128 -133 0
-129 -130 0
-129 -131 0
-129 -132 0
-129 -133 0
-130 -131 0
-130 -132 0
-130 -133 0
-131 -132 0
-131 -133 0
-132 -133 0
-134 -135 0
-134 -136 0
-134 -137 0
-134 -138 0
-134 -139 0
-134 -140 0
-135 -136 0
-135 -137 0
-135 -138 0
-135 -139 0
-135 -140 0
-136 -137 0
-136 -138 0
-136 -139 0
-136 -140 0
-137 -138 0
-137 -139 0
-137 -140 0
-138 -139 0
-138 -140 0
-139 -140 0
-141 -142 0
-141 -143 0
-141 -144 0
-141 -145 0
-141 -146 0
-141 -147 0
-142 -143 0
-142 -144 0
-142 -145 0
-142 -146 0
-142 -147 0
-143 -144 0
-143 -145 0
-143 -146 0
-143 -147 0
-144 -145 0
-144 -146 0
-144 -147 0
-145 -146 0
-145 -147 0
-146 -147 0
-148 -149 0
-148 -150 0
-148 -151 0
-148 -152 0
-148 -153 0
-148 -154 0
-149 -150 0
-149 -151 0
-149 -152 0
-149 -153 0
-149 -154 0
-150 -151 0
-150 -152 0
-150 -153 0
-150 -154 0
-151 -152 0
-151 -153 0
-151 -154 0
-152 -153 0
-152 -154 0
-153 -154 0
-155 -156 0
-155 -157 0
-155 -158 0
-155 -159 0
-155 -160 0
-155 -161 0
-156 -157 0
-156 -158 0
-156 -159 0
-156 -160 0
-156 -161 0
-157 -158 0
-157 -159 0
-157 -160 0
-157 -161 0
-158 -159 0
-158 -160 0
-158 -161 0
-159 -160 0
-159 -161 0
-160 -161 0
-162 -163 0
-162 -164 0
-162 -165 0
-162 -166 0
-162 -167 0
-162 -168 0
-163 -164 0
-163 -165 0
-163 -166 0
-163 -167 0
-163 -168 0
-164 -165 0
-164 -166 0
-164 -167 0
-164 -168 0
-165 -166 0
-165 -167 0
-165 -168 0
-166 -167 0
-166 -168 0
-167 -168 0
-169 -170 0
-169 -171 0
-169 -172 0
-169 -173 0
-169 -174 0
-169 -175 0
-170 -171 0
-170 -172 0
-170 -173 0
-170 -174 0
-170 -175 0
-171 -172 0
-171 -173 0
-171 -174 0
-171 -175 0
-172 -173 0
-172 -174 0
-172 -175 0
-173 -174 0
-173 -175 0
-174 -175 0
-176 -177 0
-176 -178 0
-176 -179 0
-176 -180 0
-176 -181 0
-176 -182 0
-177 -178 0
-177 -179 0
-177 -180 0
-177 -181 0
-177 -182 0
-178 -179 0
-178 -180 0
-178 -181 0
-178 -182 0
-179 -180 0
-179 -181 0
-179 -182 0
-180 -181 0
-180 -182 0
-181 -182 0
-183 -184 0
-183 -185 0
-183 -186 0
-183 -187 0
-183 -188 0
-183 -189 0
-184 -185 0
-184 -186 0
-184 -187 0
-184 -188 0
-184 -189 0
-185 -186 0
-185 -187 0
-185 -188 0
-185 -189 0
-186 -187 0
-186 -188 0
-186 -189 0
-187 -188 0
-187 -189 0
-188 -189 0
-190 -191 0
-190 -192 0
-190 -193 0
-190 -194 0
-190 -195 0
-190 -196 0
-191 -192 0
-191 -193 0
-191 -194 0
-191 -195 0
-191 -196 0
-192 -193 0
-192 -194 0
-192 -195 0
-192 -196 0
-193 -194 0
-193 -195 0
-193 -196 0
-194 -195 0
-194 -196 0
-195 -196 0
-197 -198 0
-197 -199 0
-197 -200 0
-197 -201 0
-197 -202 0
-197 -203 0
-198 -199 0
-198 -200 0
-198 -201 0
-198 -202 0
-198 -203 0
-199 -200 0
-199 -201 0
-199 -202 0
-199 -203 0
-200 -201 0
-200 -202 0
-200 -203 0
-201 -202 0
-201 -203 0
-202 -203 0
-204 -205 0
-204 -206 0
-204 -207 0
-204 -208 0
-204 -209 0
-204 -210 0
-205 -206 0
-205 -207 0
-205 -208 0
-205 -209 0
-205 -210 0
-206 -207 0
-206 -208 0
-206 -209 0
-206 -210 0
-207 -208 0
-207 -209 0
-207 -210 0
-208 -209 0
-208 -210 0
-209 -210 0
-211 -212 0
-211 -213 0
-211 -214 0
-211 -215 0
-211 -216 0
-211 -217 0
-212 -213 0
-212 -214 0
-212 -215 0
-212 -216 0
-212 -217 0
-213 -214 0
-213 -215 0
-213 -216 0
-213 -217 0
-214 -215 0
-214 -216 0
-214 -217 0
-215 -216 0
-215 -217 0
-216 -217 0
-218 -219 0
-218 -220 0
-218 -221 0
-218 -222 0
-218 -223 0
-218 -224 0
-219 -220 0
-219 -221 0
-219 -222 0
-219 -223 0
-219 -224 0
-220 -221 0
-220 -222 0
-220 -223 0
-220 -224 0
-221 -222 0
-221 -223 0
-221 -224 0
-222 -223 0
-222 -224 0
-223 -224 0
-225 -226 0
-225 -227 0
-225 -228 0
-225 -229 0
-225 -230 0
-225 -231 0
-226 -227 0
-226 -228 0
-226 -229 0
-226 -230 0
-226 -231 0
-227 -228 0
-227 -229 0
-227 -230 0
-227 -231 0
-228 -229 0
-228 -230 0
-228 -231 0
-229 -230 0
-229 -231 0
-230 -231 0
-232 -233 0
-232 -234 0
-232 -235 0
-232 -236 0
-232 -237 0
-232 -238 0
-233 -234 0
-233 -235 0
-233 -236 0
-233 -237 0
-233 -238 0
-234 -235 0
-234 -236 0
-234 -237 0
-234 -238 0
-235 -236 0
-235 -237 0
-235 -238 0
-236 -237 0
-236 -238 0
-237 -238 0
-239 -240 0
-239 -241 0
-239 -242 0
-239 -243 0
-239 -244 0
-239 -245 0
-240 -241 0
-240 -242 0
-240 -243 0
-240 -244 0
-240 -245 0
-241 -242 0
-241 -243 0
-241 -244 0
-241 -245 0
-242 -243 0
-242 -244 0
-242 -245 0
-243 -244 0
-243 -245 0
-244 -245 0
-1 -24 0
-3 -27 0
-1 -26 0
-3 -25 0
-5 -61 0
-7 -59 0
-6 -59 0
-4 -59 0
-7 -84 0
-4 -80 0
-7 -81 0
-7 -79 0
-1 -98 0
-3 -92 0
-5 -95 0
-6 -98 0
-5 -130 0
-4 -128 0
-1 -132 0
-7 -132 0
-6 -139 0
-4 -135 0
-2 -135 0
-1 -136 0
-5 -173 0
-5 -170 0
-6 -175 0
-4 -170 0
-3 -200 0
-2 -201 0
-4 -200 0
-6 -202 0
-3 -231 0
-6 -226 0
-7 -228 0
-3 -228 0
-2 -241 0
-3 -242 0
-6 -244 0
-3 -244 0
-9 -23 0
-9 -27 0
-8 -27 0
-9 -22 0
-9 -75 0
-8 -71 0
-11 -77 0
-14 -73 0
-12 -95 0
-14 -97 0
-12 -92 0
-11 -96 0
-10 -104 0
-11 -102 0
-8 -101 0
-13 -104 0
-8 -120 0
-8 -126 0
-10 -120 0
-11 -123 0
-8 -132 0
-8 -129 0
-11 -131 0
-12 -128 0
-8 -167 0
-13 -166 0
-9 -162 0
-10 -168 0
-11 -209 0
-10 -208 0
-10 -204 0
-8 -209 0
-13 -217 0
-14 -211 0
-11 -211 0
-8 -215 0
-11 -225 0
-14 -225 0
-8 -227 0
-13 -228 0
-12 -238 0
-8 -232 0
-13 -232 0
-10 -233 0
-12 -245 0
-8 -243 0
-11 -239 0
-10 -241 0
-18 -48 0
-15 -47 0
-21 -46 0
-18 -44 0
-19 -72 0
-20 -74 0
-15 -73 0
-19 -71 0
-20 -113 0
-21 -119 0
-20 -118 0
-15 -116 0
-16 -134 0
-20 -136 0
-16 -137 0
-17 -136 0
-18 -161 0
-15 -161 0
-16 -161 0
-19 -158 0
-20 -179 0
-21 -181 0
-21 -176 0
-20 -177 0
-18 -214 0
-15 -213 0
-17 -214 0
-21 -216 0
-24 -58 0
-22 -58 0
-26 -63 0
-28 -57 0
-23 -66 0
-22 -65 0
-25 -69 0
-22 -68 0
-23 -77 0
-25 -77 0
-26 -77 0
-24 -71 0
-25 -115 0
-24 -117 0
-24 -119 0
-25 -114 0
-25 -143 0
-22 -144 0
-27 -144 0
-23 -142 0
-24 -215 0
-28 -212 0
-25 -211 0
-24 -214 0
-26 -233 0
-25 -232 0
-24 -233 0
-23 -233 0
-35 -46 0
-29 -44 0
-31 -45 0
-30 -46 0
-35 -66 0
-32 -65 0
-31 -65 0
-30 -68 0
-29 -111 0
-29 -108 0
-32 -108 0
-30 -107 0
-33 -119 0
-35 -115 0
-30 -114 0
-30 -118 0
-30 -120 0
-35 -122 0
-32 -123 0
-29 -122 0
-32 -143 0
-30 -147 0
-35 -143 0
-34 -144 0
-35 -187 0
-32 -188 0
-34 -188 0
-31 -188 0
-34 -193 0
-31 -190 0
-31 -195 0
-32 -191 0
-32 -241 0
-29 -241 0
-35 -239 0
-33 -239 0
-39 -72 0
-41 -77 0
-42 -76 0
-37 -73 0
-41 -105 0
-38 -101 0
-39 -101 0
-36 -101 0
-37 -114 0
-36 -113 0
-39 -119 0
-40 -119 0
-42 -127 0
-37 -129 0
-39 -130 0
-36 -128 0
-40 -137 0
-39 -140 0
-36 -137 0
-42 -140 0
-42 -145 0
-40 -146 0
-41 -146 0
-42 -146 0
-38 -177 0
-37 -178 0
-41 -176 0
-40 -176 0
-41 -213 0
-38 -216 0
-42 -215 0
-37 -215 0
-47 -55 0
-46 -50 0
-46 -54 0
-43 -51 0
-43 -90 0
-44 -89 0
-49 -89 0
-47 -86 0
-48 -100 0
-45 -101 0
-45 -102 0
-49 -99 0
-48 -116 0
-44 -116 0
-47 -118 0
-49 -114 0
-43 -128 0
-48 -128 0
-45 -127 0
-43 -130 0
-48 -151 0
-48 -150 0
-48 -154 0
-48 -149 0
-48 -181 0
-49 -180 0
-48 -180 0
-49 -182 0
-52 -58 0
-56 -61 0
-52 -63 0
-50 -62 0
-53 -68 0
-54 -69 0
-55 -66 0
-51 -70 0
-54 -94 0
-55 -94 0
-52 -97 0
-53 -96 0
-51 -128 0
-53 -130 0
-54 -133 0
-51 -127 0
-53 -145 0
-54 -142 0
-56 -143 0
-56 -141 0
-53 -157 0
-54 -156 0
-50 -161 0
-52 -159 0
-54 -173 0
-50 -171 0
-52 -174 0
-55 -171 0
-53 -201 0
-52 -202 0
-50 -200 0
-56 -197 0
-56 -221 0
-54 -219 0
-52 -224 0
-54 -222 0
-54 -228 0
-51 -227 0
-56 -230 0
-53 -231 0
-52 -236 0
-53 -237 0
-51 -233 0
-55 -234 0
-62 -110 0
-59 -109 0
-58 -111 0
-62 -107 0
-62 -133 0
-58 -127 0
-59 -131 0
-58 -129 0
-61 -134 0
-58 -137 0
-61 -139 0
-60 -140 0
-60 -142 0
-61 -146 0
-62 -144 0
-60 -147 0
-61 -152 0
-61 -154 0
-61 -153 0
-58 -151 0
-62 -172 0
-58 -173 0
-63 -175 0
-58 -171 0
-63 -201 0
-61 -203 0
-58 -200 0
-61 -200 0
-61 -208 0
-62 -204 0
-63 -204 0
-63 -206 0
-57 -238 0
-61 -237 0
-58 -237 0
-60 -238 0
-66 -167 0
-66 -166 0
-69 -163 0
-68 -162 0
-67 -203 0
-67 -199 0
-67 -201 0
-64 -202 0
-64 -204 0
-66 -210 0
-66 -204 0
-65 -210 0
-70 -235 0
-65 -235 0
-65 -236 0
-66 -237 0
-73 -93 0
-75 -93 0
-76 -92 0
-75 -98 0
-77 -110 0
-74 -107 0
-76 -108 0
-71 -111 0
-75 -117 0
-77 -113 0
-73 -118 0
-73 -119 0
-74 -126 0
-72 -120 0
-74 -120 0
-72 -122 0
-73 -127 0
-73 -128 0
-77 -129 0
-73 -131 0
-74 -137 0
-73 -136 0
-76 -138 0
-72 -136 0
-73 -174 0
-75 -173 0
-73 -172 0
-71 -170 0
-73 -197 0
-71 -203 0
-77 -200 0
-71 -201 0
-76 -223 0
-71 -223 0
-72 -218 0
-71 -224 0
-79 -125 0
-80 -125 0
-81 -125 0
-82 -123 0
-80 -145 0
-84 -142 0
-82 -141 0
-82 -143 0
-84 -160 0
-81 -156 0
-81 -160 0
-79 -157 0
-81 -163 0
-79 -167 0
-79 -162 0
-83 -164 0
-82 -179 0
-82 -177 0
-80 -180 0
-83 -181 0
-83 -189 0
-79 -184 0
-83 -184 0
-84 -188 0
-82 -190 0
-80 -190 0
-84 -192 0
-79 -193 0
-82 -202 0
-84 -198 0
-79 -198 0
-84 -197 0
-91 -95 0
-87 -92 0
-89 -96 0
-89 -92 0
-89 -105 0
-91 -104 0
-86 -102 0
-87 -104 0
-91 -209 0
-89 -204 0
-90 -207 0
-87 -208 0
-89 -219 0
-91 -220 0
-86 -221 0
-90 -222 0
-94 -111 0
-96 -108 0
-98 -110 0
-97 -107 0
-93 -186 0
-93 -185 0
-96 -189 0
-94 -188 0
-98 -207 0
-93 -206 0
-95 -204 0
-98 -204 0
-96 -237 0
-98 -235 0
-92 -233 0
-92 -235 0
-104 -108 0
-101 -111 0
-104 -107 0
-102 -112 0
-100 -146 0
-100 -145 0
-105 -141 0
-102 -141 0
-101 -157 0
-100 -157 0
-99 -161 0
-105 -157 0
-101 -167 0
-105 -167 0
-100 -166 0
-102 -165 0
-103 -190 0
-103 -193 0
-105 -195 0
-101 -194 0
-104 -220 0
-105 -223 0
-104 -223 0
-105 -220 0
-106 -148 0
-112 -151 0
-109 -153 0
-109 -154 0
-111 -190 0
-112 -190 0
-112 -191 0
-108 -195 0
-109 -209 0
-107 -207 0
-110 -206 0
-110 -205 0
-107 -212 0
-109 -213 0
-109 -217 0
-110 -213 0
-109 -223 0
-110 -218 0
-108 -224 0
-109 -224 0
-111 -234 0
-110 -238 0
-109 -236 0
-111 -236 0
-116 -126 0
-118 -125 0
-113 -122 0
-113 -124 0
-113 -127 0
-113 -130 0
-117 -127 0
-116 -133 0
-119 -155 0
-117 -156 0
-118 -159 0
-118 -158 0
-115 -173 0
-115 -172 0
-117 -173 0
-117 -174 0
-116 -188 0
-119 -183 0
-113 -183 0
-118 -185 0
-113 -191 0
-118 -196 0
-117 -196 0
-115 -191 0
-117 -197 0
-114 -197 0
-117 -200 0
-114 -199 0
-115 -204 0
-117 -209 0
-114 -205 0
-113 -207 0
-118 -228 0
-119 -231 0
-119 -230 0
-115 -230 0
-125 -139 0
-121 -135 0
-122 -139 0
-121 -138 0
-126 -150 0
-124 -153 0
-120 -149 0
-121 -148 0
-124 -156 0
-125 -161 0
-126 -156 0
-121 -160 0
-121 -168 0
-122 -164 0
-120 -162 0
-125 -165 0
-122 -180 0
-121 -182 0
-126 -182 0
-122 -181 0
-123 -183 0
-126 -187 0
-121 -185 0
-121 -189 0
-122 -229 0
-121 -225 0
-124 -231 0
-126 -227 0
-130 -188 0
-129 -184 0
-128 -186 0
-130 -183 0
-130 -190 0
-133 -193 0
-128 -194 0
-127 -192 0
-130 -203 0
-128 -201 0
-129 -197 0
-131 -197 0
-135 -172 0
-140 -170 0
-136 -169 0
-136 -173 0
-134 -189 0
-138 -183 0
-138 -187 0
-137 -185 0
-139 -192 0
-135 -193 0
-137 -192 0
-138 -191 0
-137 -198 0
-137 -199 0
-136 -200 0
-137 -202 0
-140 -217 0
-134 -211 0
-136 -215 0
-137 -211 0
-134 -231 0
-140 -231 0
-136 -225 0
-135 -226 0
-144 -191 0
-145 -196 0
-147 -194 0
-145 -192 0
-144 -211 0
-142 -213 0
-141 -215 0
-142 -216 0
-153 -156 0
-149 -155 0
-153 -157 0
-148 -161 0
-151 -175 0
-152 -170 0
-149 -175 0
-149 -174 0
-154 -178 0
-152 -177 0
-148 -182 0
-151 -176 0
-153 -189 0
-149 -183 0
-152 -188 0
-150 -189 0
-153 -190 0
-148 -193 0
-150 -191 0
-154 -191 0
-154 -209 0
-151 -210 0
-153 -208 0
-152 -209 0
-154 -231 0
-154 -226 0
-154 -229 0
-148 -229 0
-157 -199 0
-161 -198 0
-157 -197 0
-156 -199 0
-168 -180 0
-166 -181 0
-163 -179 0
-167 -179 0
-162 -215 0
-168 -214 0
-162 -213 0
-162 -211 0
-162 -221 0
-167 -220 0
-162 -222 0
-163 -222 0
-173 -195 0
-175 -191 0
-172 -196 0
-169 -193 0
-171 -199 0
-171 -201 0
-173 -203 0
-175 -203 0
-172 -212 0
-170 -213 0
-170 -215 0
-171 -217 0
-170 -224 0
-171 -221 0
-171 -218 0
-171 -223 0
-181 -196 0
-178 -193 0
-181 -190 0
-179 -194 0
-179 -217 0
-178 -217 0
-181 -212 0
-179 -215 0
-176 -245 0
-180 -240 0
-178 -245 0
-178 -240 0
-183 -193 0
-185 -196 0
-186 -192 0
-189 -192 0
-186 -204 0
-185 -205 0
-187 -209 0
-186 -205 0
-185 -236 0
-187 -236 0
-185 -234 0
-187 -237 0
-185 -241 0
-183 -243 0
-184 -245 0
-187 -243 0
-196 -198 0
-196 -201 0
-193 -203 0
-193 -199 0
-194 -219 0
-193 -220 0
-191 -219 0
-195 -220 0
-190 -225 0
-193 -226 0
-194 -225 0
-196 -228 0
-202 -238 0
-199 -235 0
-201 -233 0
-203 -237 0
-209 -238 0
-209 -237 0
-208 -235 0
-210 -236 0
-213 -221 0
-212 -222 0
-215 -218 0
-217 -223 0
-214 -233 0
-214 -235 0
-217 -237 0
-216 -233 0
-216 -239 0
-217 -241 0
-217 -243 0
-215 -245 0
